\Problem name: 

Minimize
obj: Y
Subject To
Escolhe_Oponente_0:  X(0,1) + X(0,2) + X(0,3) + X(0,4) + X(0,5) + X(0,6) + X(0,7) + X(0,8) + X(0,9) + X(0,10)
 + X(0,11) + X(0,12) + X(0,13) + X(0,14) + X(0,15) + X(0,16) + X(0,17) + X(0,18) + X(0,19) + X(0,20)
 + X(0,21) + X(0,22) + X(0,23) + X(0,24) + X(0,25) + X(0,26) + X(0,27) + X(0,28) + X(0,29) + X(0,30)
 + X(0,31) = 1
Escolhe_Oponente_1:  X(0,1) + X(1,2) + X(1,3) + X(1,4) + X(1,5) + X(1,6) + X(1,7) + X(1,8) + X(1,9) + X(1,10)
 + X(1,11) + X(1,12) + X(1,13) + X(1,14) + X(1,15) + X(1,16) + X(1,17) + X(1,18) + X(1,19) + X(1,20)
 + X(1,21) + X(1,22) + X(1,23) + X(1,24) + X(1,25) + X(1,26) + X(1,27) + X(1,28) + X(1,29) + X(1,30)
 + X(1,31) = 1
Escolhe_Oponente_2:  X(0,2) + X(1,2) + X(2,3) + X(2,4) + X(2,5) + X(2,6) + X(2,7) + X(2,8) + X(2,9) + X(2,10)
 + X(2,11) + X(2,12) + X(2,13) + X(2,14) + X(2,15) + X(2,16) + X(2,17) + X(2,18) + X(2,19) + X(2,20)
 + X(2,21) + X(2,22) + X(2,23) + X(2,24) + X(2,25) + X(2,26) + X(2,27) + X(2,28) + X(2,29) + X(2,30)
 + X(2,31) = 1
Escolhe_Oponente_3:  X(0,3) + X(1,3) + X(2,3) + X(3,4) + X(3,5) + X(3,6) + X(3,7) + X(3,8) + X(3,9) + X(3,10)
 + X(3,11) + X(3,12) + X(3,13) + X(3,14) + X(3,15) + X(3,16) + X(3,17) + X(3,18) + X(3,19) + X(3,20)
 + X(3,21) + X(3,22) + X(3,23) + X(3,24) + X(3,25) + X(3,26) + X(3,27) + X(3,28) + X(3,29) + X(3,30)
 + X(3,31) = 1
Escolhe_Oponente_4:  X(0,4) + X(1,4) + X(2,4) + X(3,4) + X(4,5) + X(4,6) + X(4,7) + X(4,8) + X(4,9) + X(4,10)
 + X(4,11) + X(4,12) + X(4,13) + X(4,14) + X(4,15) + X(4,16) + X(4,17) + X(4,18) + X(4,19) + X(4,20)
 + X(4,21) + X(4,22) + X(4,23) + X(4,24) + X(4,25) + X(4,26) + X(4,27) + X(4,28) + X(4,29) + X(4,30)
 + X(4,31) = 1
Escolhe_Oponente_5:  X(0,5) + X(1,5) + X(2,5) + X(3,5) + X(4,5) + X(5,6) + X(5,7) + X(5,8) + X(5,9) + X(5,10)
 + X(5,11) + X(5,12) + X(5,13) + X(5,14) + X(5,15) + X(5,16) + X(5,17) + X(5,18) + X(5,19) + X(5,20)
 + X(5,21) + X(5,22) + X(5,23) + X(5,24) + X(5,25) + X(5,26) + X(5,27) + X(5,28) + X(5,29) + X(5,30)
 + X(5,31) = 1
Escolhe_Oponente_6:  X(0,6) + X(1,6) + X(2,6) + X(3,6) + X(4,6) + X(5,6) + X(6,7) + X(6,8) + X(6,9) + X(6,10)
 + X(6,11) + X(6,12) + X(6,13) + X(6,14) + X(6,15) + X(6,16) + X(6,17) + X(6,18) + X(6,19) + X(6,20)
 + X(6,21) + X(6,22) + X(6,23) + X(6,24) + X(6,25) + X(6,26) + X(6,27) + X(6,28) + X(6,29) + X(6,30)
 + X(6,31) = 1
Escolhe_Oponente_7:  X(0,7) + X(1,7) + X(2,7) + X(3,7) + X(4,7) + X(5,7) + X(6,7) + X(7,8) + X(7,9) + X(7,10)
 + X(7,11) + X(7,12) + X(7,13) + X(7,14) + X(7,15) + X(7,16) + X(7,17) + X(7,18) + X(7,19) + X(7,20)
 + X(7,21) + X(7,22) + X(7,23) + X(7,24) + X(7,25) + X(7,26) + X(7,27) + X(7,28) + X(7,29) + X(7,30)
 + X(7,31) = 1
Escolhe_Oponente_8:  X(0,8) + X(1,8) + X(2,8) + X(3,8) + X(4,8) + X(5,8) + X(6,8) + X(7,8) + X(8,9) + X(8,10)
 + X(8,11) + X(8,12) + X(8,13) + X(8,14) + X(8,15) + X(8,16) + X(8,17) + X(8,18) + X(8,19) + X(8,20)
 + X(8,21) + X(8,22) + X(8,23) + X(8,24) + X(8,25) + X(8,26) + X(8,27) + X(8,28) + X(8,29) + X(8,30)
 + X(8,31) = 1
Escolhe_Oponente_9:  X(0,9) + X(1,9) + X(2,9) + X(3,9) + X(4,9) + X(5,9) + X(6,9) + X(7,9) + X(8,9) + X(9,10)
 + X(9,11) + X(9,12) + X(9,13) + X(9,14) + X(9,15) + X(9,16) + X(9,17) + X(9,18) + X(9,19) + X(9,20)
 + X(9,21) + X(9,22) + X(9,23) + X(9,24) + X(9,25) + X(9,26) + X(9,27) + X(9,28) + X(9,29) + X(9,30)
 + X(9,31) = 1
Escolhe_Oponente_10:  X(0,10) + X(1,10) + X(2,10) + X(3,10) + X(4,10) + X(5,10) + X(6,10) + X(7,10) + X(8,10) + X(9,10)
 + X(10,11) + X(10,12) + X(10,13) + X(10,14) + X(10,15) + X(10,16) + X(10,17) + X(10,18) + X(10,19) + X(10,20)
 + X(10,21) + X(10,22) + X(10,23) + X(10,24) + X(10,25) + X(10,26) + X(10,27) + X(10,28) + X(10,29) + X(10,30)
 + X(10,31) = 1
Escolhe_Oponente_11:  X(0,11) + X(1,11) + X(2,11) + X(3,11) + X(4,11) + X(5,11) + X(6,11) + X(7,11) + X(8,11) + X(9,11)
 + X(10,11) + X(11,12) + X(11,13) + X(11,14) + X(11,15) + X(11,16) + X(11,17) + X(11,18) + X(11,19) + X(11,20)
 + X(11,21) + X(11,22) + X(11,23) + X(11,24) + X(11,25) + X(11,26) + X(11,27) + X(11,28) + X(11,29) + X(11,30)
 + X(11,31) = 1
Escolhe_Oponente_12:  X(0,12) + X(1,12) + X(2,12) + X(3,12) + X(4,12) + X(5,12) + X(6,12) + X(7,12) + X(8,12) + X(9,12)
 + X(10,12) + X(11,12) + X(12,13) + X(12,14) + X(12,15) + X(12,16) + X(12,17) + X(12,18) + X(12,19) + X(12,20)
 + X(12,21) + X(12,22) + X(12,23) + X(12,24) + X(12,25) + X(12,26) + X(12,27) + X(12,28) + X(12,29) + X(12,30)
 + X(12,31) = 1
Escolhe_Oponente_13:  X(0,13) + X(1,13) + X(2,13) + X(3,13) + X(4,13) + X(5,13) + X(6,13) + X(7,13) + X(8,13) + X(9,13)
 + X(10,13) + X(11,13) + X(12,13) + X(13,14) + X(13,15) + X(13,16) + X(13,17) + X(13,18) + X(13,19) + X(13,20)
 + X(13,21) + X(13,22) + X(13,23) + X(13,24) + X(13,25) + X(13,26) + X(13,27) + X(13,28) + X(13,29) + X(13,30)
 + X(13,31) = 1
Escolhe_Oponente_14:  X(0,14) + X(1,14) + X(2,14) + X(3,14) + X(4,14) + X(5,14) + X(6,14) + X(7,14) + X(8,14) + X(9,14)
 + X(10,14) + X(11,14) + X(12,14) + X(13,14) + X(14,15) + X(14,16) + X(14,17) + X(14,18) + X(14,19) + X(14,20)
 + X(14,21) + X(14,22) + X(14,23) + X(14,24) + X(14,25) + X(14,26) + X(14,27) + X(14,28) + X(14,29) + X(14,30)
 + X(14,31) = 1
Escolhe_Oponente_15:  X(0,15) + X(1,15) + X(2,15) + X(3,15) + X(4,15) + X(5,15) + X(6,15) + X(7,15) + X(8,15) + X(9,15)
 + X(10,15) + X(11,15) + X(12,15) + X(13,15) + X(14,15) + X(15,16) + X(15,17) + X(15,18) + X(15,19) + X(15,20)
 + X(15,21) + X(15,22) + X(15,23) + X(15,24) + X(15,25) + X(15,26) + X(15,27) + X(15,28) + X(15,29) + X(15,30)
 + X(15,31) = 1
Escolhe_Oponente_16:  X(0,16) + X(1,16) + X(2,16) + X(3,16) + X(4,16) + X(5,16) + X(6,16) + X(7,16) + X(8,16) + X(9,16)
 + X(10,16) + X(11,16) + X(12,16) + X(13,16) + X(14,16) + X(15,16) + X(16,17) + X(16,18) + X(16,19) + X(16,20)
 + X(16,21) + X(16,22) + X(16,23) + X(16,24) + X(16,25) + X(16,26) + X(16,27) + X(16,28) + X(16,29) + X(16,30)
 + X(16,31) = 1
Escolhe_Oponente_17:  X(0,17) + X(1,17) + X(2,17) + X(3,17) + X(4,17) + X(5,17) + X(6,17) + X(7,17) + X(8,17) + X(9,17)
 + X(10,17) + X(11,17) + X(12,17) + X(13,17) + X(14,17) + X(15,17) + X(16,17) + X(17,18) + X(17,19) + X(17,20)
 + X(17,21) + X(17,22) + X(17,23) + X(17,24) + X(17,25) + X(17,26) + X(17,27) + X(17,28) + X(17,29) + X(17,30)
 + X(17,31) = 1
Escolhe_Oponente_18:  X(0,18) + X(1,18) + X(2,18) + X(3,18) + X(4,18) + X(5,18) + X(6,18) + X(7,18) + X(8,18) + X(9,18)
 + X(10,18) + X(11,18) + X(12,18) + X(13,18) + X(14,18) + X(15,18) + X(16,18) + X(17,18) + X(18,19) + X(18,20)
 + X(18,21) + X(18,22) + X(18,23) + X(18,24) + X(18,25) + X(18,26) + X(18,27) + X(18,28) + X(18,29) + X(18,30)
 + X(18,31) = 1
Escolhe_Oponente_19:  X(0,19) + X(1,19) + X(2,19) + X(3,19) + X(4,19) + X(5,19) + X(6,19) + X(7,19) + X(8,19) + X(9,19)
 + X(10,19) + X(11,19) + X(12,19) + X(13,19) + X(14,19) + X(15,19) + X(16,19) + X(17,19) + X(18,19) + X(19,20)
 + X(19,21) + X(19,22) + X(19,23) + X(19,24) + X(19,25) + X(19,26) + X(19,27) + X(19,28) + X(19,29) + X(19,30)
 + X(19,31) = 1
Escolhe_Oponente_20:  X(0,20) + X(1,20) + X(2,20) + X(3,20) + X(4,20) + X(5,20) + X(6,20) + X(7,20) + X(8,20) + X(9,20)
 + X(10,20) + X(11,20) + X(12,20) + X(13,20) + X(14,20) + X(15,20) + X(16,20) + X(17,20) + X(18,20) + X(19,20)
 + X(20,21) + X(20,22) + X(20,23) + X(20,24) + X(20,25) + X(20,26) + X(20,27) + X(20,28) + X(20,29) + X(20,30)
 + X(20,31) = 1
Escolhe_Oponente_21:  X(0,21) + X(1,21) + X(2,21) + X(3,21) + X(4,21) + X(5,21) + X(6,21) + X(7,21) + X(8,21) + X(9,21)
 + X(10,21) + X(11,21) + X(12,21) + X(13,21) + X(14,21) + X(15,21) + X(16,21) + X(17,21) + X(18,21) + X(19,21)
 + X(20,21) + X(21,22) + X(21,23) + X(21,24) + X(21,25) + X(21,26) + X(21,27) + X(21,28) + X(21,29) + X(21,30)
 + X(21,31) = 1
Escolhe_Oponente_22:  X(0,22) + X(1,22) + X(2,22) + X(3,22) + X(4,22) + X(5,22) + X(6,22) + X(7,22) + X(8,22) + X(9,22)
 + X(10,22) + X(11,22) + X(12,22) + X(13,22) + X(14,22) + X(15,22) + X(16,22) + X(17,22) + X(18,22) + X(19,22)
 + X(20,22) + X(21,22) + X(22,23) + X(22,24) + X(22,25) + X(22,26) + X(22,27) + X(22,28) + X(22,29) + X(22,30)
 + X(22,31) = 1
Escolhe_Oponente_23:  X(0,23) + X(1,23) + X(2,23) + X(3,23) + X(4,23) + X(5,23) + X(6,23) + X(7,23) + X(8,23) + X(9,23)
 + X(10,23) + X(11,23) + X(12,23) + X(13,23) + X(14,23) + X(15,23) + X(16,23) + X(17,23) + X(18,23) + X(19,23)
 + X(20,23) + X(21,23) + X(22,23) + X(23,24) + X(23,25) + X(23,26) + X(23,27) + X(23,28) + X(23,29) + X(23,30)
 + X(23,31) = 1
Escolhe_Oponente_24:  X(0,24) + X(1,24) + X(2,24) + X(3,24) + X(4,24) + X(5,24) + X(6,24) + X(7,24) + X(8,24) + X(9,24)
 + X(10,24) + X(11,24) + X(12,24) + X(13,24) + X(14,24) + X(15,24) + X(16,24) + X(17,24) + X(18,24) + X(19,24)
 + X(20,24) + X(21,24) + X(22,24) + X(23,24) + X(24,25) + X(24,26) + X(24,27) + X(24,28) + X(24,29) + X(24,30)
 + X(24,31) = 1
Escolhe_Oponente_25:  X(0,25) + X(1,25) + X(2,25) + X(3,25) + X(4,25) + X(5,25) + X(6,25) + X(7,25) + X(8,25) + X(9,25)
 + X(10,25) + X(11,25) + X(12,25) + X(13,25) + X(14,25) + X(15,25) + X(16,25) + X(17,25) + X(18,25) + X(19,25)
 + X(20,25) + X(21,25) + X(22,25) + X(23,25) + X(24,25) + X(25,26) + X(25,27) + X(25,28) + X(25,29) + X(25,30)
 + X(25,31) = 1
Escolhe_Oponente_26:  X(0,26) + X(1,26) + X(2,26) + X(3,26) + X(4,26) + X(5,26) + X(6,26) + X(7,26) + X(8,26) + X(9,26)
 + X(10,26) + X(11,26) + X(12,26) + X(13,26) + X(14,26) + X(15,26) + X(16,26) + X(17,26) + X(18,26) + X(19,26)
 + X(20,26) + X(21,26) + X(22,26) + X(23,26) + X(24,26) + X(25,26) + X(26,27) + X(26,28) + X(26,29) + X(26,30)
 + X(26,31) = 1
Escolhe_Oponente_27:  X(0,27) + X(1,27) + X(2,27) + X(3,27) + X(4,27) + X(5,27) + X(6,27) + X(7,27) + X(8,27) + X(9,27)
 + X(10,27) + X(11,27) + X(12,27) + X(13,27) + X(14,27) + X(15,27) + X(16,27) + X(17,27) + X(18,27) + X(19,27)
 + X(20,27) + X(21,27) + X(22,27) + X(23,27) + X(24,27) + X(25,27) + X(26,27) + X(27,28) + X(27,29) + X(27,30)
 + X(27,31) = 1
Escolhe_Oponente_28:  X(0,28) + X(1,28) + X(2,28) + X(3,28) + X(4,28) + X(5,28) + X(6,28) + X(7,28) + X(8,28) + X(9,28)
 + X(10,28) + X(11,28) + X(12,28) + X(13,28) + X(14,28) + X(15,28) + X(16,28) + X(17,28) + X(18,28) + X(19,28)
 + X(20,28) + X(21,28) + X(22,28) + X(23,28) + X(24,28) + X(25,28) + X(26,28) + X(27,28) + X(28,29) + X(28,30)
 + X(28,31) = 1
Escolhe_Oponente_29:  X(0,29) + X(1,29) + X(2,29) + X(3,29) + X(4,29) + X(5,29) + X(6,29) + X(7,29) + X(8,29) + X(9,29)
 + X(10,29) + X(11,29) + X(12,29) + X(13,29) + X(14,29) + X(15,29) + X(16,29) + X(17,29) + X(18,29) + X(19,29)
 + X(20,29) + X(21,29) + X(22,29) + X(23,29) + X(24,29) + X(25,29) + X(26,29) + X(27,29) + X(28,29) + X(29,30)
 + X(29,31) = 1
Escolhe_Oponente_30:  X(0,30) + X(1,30) + X(2,30) + X(3,30) + X(4,30) + X(5,30) + X(6,30) + X(7,30) + X(8,30) + X(9,30)
 + X(10,30) + X(11,30) + X(12,30) + X(13,30) + X(14,30) + X(15,30) + X(16,30) + X(17,30) + X(18,30) + X(19,30)
 + X(20,30) + X(21,30) + X(22,30) + X(23,30) + X(24,30) + X(25,30) + X(26,30) + X(27,30) + X(28,30) + X(29,30)
 + X(30,31) = 1
Escolhe_Oponente_31:  X(0,31) + X(1,31) + X(2,31) + X(3,31) + X(4,31) + X(5,31) + X(6,31) + X(7,31) + X(8,31) + X(9,31)
 + X(10,31) + X(11,31) + X(12,31) + X(13,31) + X(14,31) + X(15,31) + X(16,31) + X(17,31) + X(18,31) + X(19,31)
 + X(20,31) + X(21,31) + X(22,31) + X(23,31) + X(24,31) + X(25,31) + X(26,31) + X(27,31) + X(28,31) + X(29,31)
 + X(30,31) = 1
Balanceamento_0_1:  Y -300 X(0,1) >= 0
Balanceamento_0_2:  Y -1900 X(0,2) >= 0
Balanceamento_0_4:  Y -2600 X(0,4) >= 0
Balanceamento_0_5:  Y -2600 X(0,5) >= 0
Balanceamento_0_6:  Y -1000 X(0,6) >= 0
Balanceamento_0_9:  Y -600 X(0,9) >= 0
Balanceamento_0_10:  Y -1400 X(0,10) >= 0
Balanceamento_0_11:  Y -1600 X(0,11) >= 0
Balanceamento_0_12:  Y -600 X(0,12) >= 0
Balanceamento_0_16:  Y -1150 X(0,16) >= 0
Balanceamento_0_20:  Y -600 X(0,20) >= 0
Balanceamento_0_21:  Y -150 X(0,21) >= 0
Balanceamento_0_27:  Y -1000 X(0,27) >= 0
Balanceamento_0_28:  Y -600 X(0,28) >= 0
Balanceamento_0_29:  Y -150 X(0,29) >= 0
Balanceamento_1_2:  Y -1600 X(1,2) >= 0
Balanceamento_1_4:  Y -2300 X(1,4) >= 0
Balanceamento_1_5:  Y -2300 X(1,5) >= 0
Balanceamento_1_6:  Y -700 X(1,6) >= 0
Balanceamento_1_9:  Y -300 X(1,9) >= 0
Balanceamento_1_10:  Y -1100 X(1,10) >= 0
Balanceamento_1_11:  Y -1300 X(1,11) >= 0
Balanceamento_1_12:  Y -300 X(1,12) >= 0
Balanceamento_1_16:  Y -850 X(1,16) >= 0
Balanceamento_1_20:  Y -300 X(1,20) >= 0
Balanceamento_1_27:  Y -700 X(1,27) >= 0
Balanceamento_1_28:  Y -300 X(1,28) >= 0
Balanceamento_2_4:  Y -700 X(2,4) >= 0
Balanceamento_2_5:  Y -700 X(2,5) >= 0
Balanceamento_3_4:  Y -4400 X(3,4) >= 0
Balanceamento_3_5:  Y -4400 X(3,5) >= 0
Balanceamento_3_6:  Y -2900 X(3,6) >= 0
Balanceamento_3_7:  Y -800 X(3,7) >= 0
Balanceamento_3_8:  Y -200 X(3,8) >= 0
Balanceamento_3_9:  Y -2500 X(3,9) >= 0
Balanceamento_3_10:  Y -3300 X(3,10) >= 0
Balanceamento_3_11:  Y -3500 X(3,11) >= 0
Balanceamento_3_12:  Y -2500 X(3,12) >= 0
Balanceamento_3_13:  Y -600 X(3,13) >= 0
Balanceamento_3_14:  Y -300 X(3,14) >= 0
Balanceamento_3_15:  Y -700 X(3,15) >= 0
Balanceamento_3_16:  Y -3050 X(3,16) >= 0
Balanceamento_3_17:  Y -300 X(3,17) >= 0
Balanceamento_3_18:  Y -1400 X(3,18) >= 0
Balanceamento_3_19:  Y -1500 X(3,19) >= 0
Balanceamento_3_20:  Y -2500 X(3,20) >= 0
Balanceamento_3_21:  Y -2050 X(3,21) >= 0
Balanceamento_3_22:  Y -200 X(3,22) >= 0
Balanceamento_3_23:  Y -400 X(3,23) >= 0
Balanceamento_3_24:  Y -1300 X(3,24) >= 0
Balanceamento_3_25:  Y -100 X(3,25) >= 0
Balanceamento_3_26:  Y -1200 X(3,26) >= 0
Balanceamento_3_27:  Y -2900 X(3,27) >= 0
Balanceamento_3_28:  Y -2500 X(3,28) >= 0
Balanceamento_3_29:  Y -2050 X(3,29) >= 0
Balanceamento_3_31:  Y -1000 X(3,31) >= 0
Balanceamento_6_10:  Y -650 X(6,10) >= 0
Balanceamento_6_11:  Y -850 X(6,11) >= 0
Balanceamento_6_16:  Y -150 X(6,16) >= 0
Balanceamento_7_9:  Y -1700 X(7,9) >= 0
Balanceamento_7_10:  Y -2500 X(7,10) >= 0
Balanceamento_7_11:  Y -2700 X(7,11) >= 0
Balanceamento_7_12:  Y -1700 X(7,12) >= 0
Balanceamento_7_16:  Y -2250 X(7,16) >= 0
Balanceamento_7_18:  Y -600 X(7,18) >= 0
Balanceamento_7_19:  Y -700 X(7,19) >= 0
Balanceamento_7_20:  Y -1700 X(7,20) >= 0
Balanceamento_7_21:  Y -1250 X(7,21) >= 0
Balanceamento_7_24:  Y -500 X(7,24) >= 0
Balanceamento_7_26:  Y -400 X(7,26) >= 0
Balanceamento_7_27:  Y -2100 X(7,27) >= 0
Balanceamento_7_28:  Y -1700 X(7,28) >= 0
Balanceamento_7_29:  Y -1250 X(7,29) >= 0
Balanceamento_7_31:  Y -200 X(7,31) >= 0
Balanceamento_8_9:  Y -2300 X(8,9) >= 0
Balanceamento_8_10:  Y -3100 X(8,10) >= 0
Balanceamento_8_11:  Y -3300 X(8,11) >= 0
Balanceamento_8_12:  Y -2300 X(8,12) >= 0
Balanceamento_8_13:  Y -400 X(8,13) >= 0
Balanceamento_8_14:  Y -100 X(8,14) >= 0
Balanceamento_8_15:  Y -500 X(8,15) >= 0
Balanceamento_8_16:  Y -2850 X(8,16) >= 0
Balanceamento_8_17:  Y -100 X(8,17) >= 0
Balanceamento_8_18:  Y -1200 X(8,18) >= 0
Balanceamento_8_19:  Y -1300 X(8,19) >= 0
Balanceamento_8_20:  Y -2300 X(8,20) >= 0
Balanceamento_8_21:  Y -1850 X(8,21) >= 0
Balanceamento_8_23:  Y -200 X(8,23) >= 0
Balanceamento_8_24:  Y -1100 X(8,24) >= 0
Balanceamento_8_26:  Y -1000 X(8,26) >= 0
Balanceamento_8_27:  Y -2700 X(8,27) >= 0
Balanceamento_8_28:  Y -2300 X(8,28) >= 0
Balanceamento_8_29:  Y -1850 X(8,29) >= 0
Balanceamento_8_31:  Y -800 X(8,31) >= 0
Balanceamento_9_10:  Y -800 X(9,10) >= 0
Balanceamento_9_11:  Y -1000 X(9,11) >= 0
Balanceamento_9_16:  Y -550 X(9,16) >= 0
Balanceamento_9_27:  Y -400 X(9,27) >= 0
Balanceamento_10_11:  Y -200 X(10,11) >= 0
Balanceamento_12_16:  Y -550 X(12,16) >= 0
Balanceamento_12_27:  Y -400 X(12,27) >= 0
Balanceamento_13_15:  Y -100 X(13,15) >= 0
Balanceamento_13_16:  Y -2450 X(13,16) >= 0
Balanceamento_13_18:  Y -800 X(13,18) >= 0
Balanceamento_13_19:  Y -900 X(13,19) >= 0
Balanceamento_13_20:  Y -1900 X(13,20) >= 0
Balanceamento_13_21:  Y -1450 X(13,21) >= 0
Balanceamento_13_24:  Y -700 X(13,24) >= 0
Balanceamento_13_26:  Y -600 X(13,26) >= 0
Balanceamento_13_27:  Y -2300 X(13,27) >= 0
Balanceamento_13_28:  Y -1900 X(13,28) >= 0
Balanceamento_13_29:  Y -1450 X(13,29) >= 0
Balanceamento_13_31:  Y -400 X(13,31) >= 0
Balanceamento_14_15:  Y -400 X(14,15) >= 0
Balanceamento_14_16:  Y -2750 X(14,16) >= 0
Balanceamento_14_18:  Y -1100 X(14,18) >= 0
Balanceamento_14_19:  Y -1200 X(14,19) >= 0
Balanceamento_14_20:  Y -2200 X(14,20) >= 0
Balanceamento_14_21:  Y -1750 X(14,21) >= 0
Balanceamento_14_23:  Y -100 X(14,23) >= 0
Balanceamento_14_24:  Y -1000 X(14,24) >= 0
Balanceamento_14_26:  Y -900 X(14,26) >= 0
Balanceamento_14_27:  Y -2600 X(14,27) >= 0
Balanceamento_14_28:  Y -2200 X(14,28) >= 0
Balanceamento_14_29:  Y -1750 X(14,29) >= 0
Balanceamento_14_31:  Y -700 X(14,31) >= 0
Balanceamento_15_16:  Y -2350 X(15,16) >= 0
Balanceamento_15_18:  Y -700 X(15,18) >= 0
Balanceamento_15_19:  Y -800 X(15,19) >= 0
Balanceamento_15_20:  Y -1800 X(15,20) >= 0
Balanceamento_15_21:  Y -1350 X(15,21) >= 0
Balanceamento_15_24:  Y -600 X(15,24) >= 0
Balanceamento_15_26:  Y -500 X(15,26) >= 0
Balanceamento_15_27:  Y -2200 X(15,27) >= 0
Balanceamento_15_28:  Y -1800 X(15,28) >= 0
Balanceamento_15_29:  Y -1350 X(15,29) >= 0
Balanceamento_15_31:  Y -300 X(15,31) >= 0
Balanceamento_17_18:  Y -1100 X(17,18) >= 0
Balanceamento_17_19:  Y -1200 X(17,19) >= 0
Balanceamento_17_20:  Y -2200 X(17,20) >= 0
Balanceamento_17_21:  Y -1750 X(17,21) >= 0
Balanceamento_17_23:  Y -100 X(17,23) >= 0
Balanceamento_17_24:  Y -1000 X(17,24) >= 0
Balanceamento_17_26:  Y -900 X(17,26) >= 0
Balanceamento_17_27:  Y -2600 X(17,27) >= 0
Balanceamento_17_28:  Y -2200 X(17,28) >= 0
Balanceamento_17_29:  Y -1750 X(17,29) >= 0
Balanceamento_17_31:  Y -700 X(17,31) >= 0
Balanceamento_18_19:  Y -100 X(18,19) >= 0
Balanceamento_18_20:  Y -1100 X(18,20) >= 0
Balanceamento_18_21:  Y -650 X(18,21) >= 0
Balanceamento_18_27:  Y -1500 X(18,27) >= 0
Balanceamento_18_28:  Y -1100 X(18,28) >= 0
Balanceamento_18_29:  Y -650 X(18,29) >= 0
Balanceamento_19_20:  Y -1000 X(19,20) >= 0
Balanceamento_19_21:  Y -550 X(19,21) >= 0
Balanceamento_19_27:  Y -1400 X(19,27) >= 0
Balanceamento_19_28:  Y -1000 X(19,28) >= 0
Balanceamento_19_29:  Y -550 X(19,29) >= 0
Balanceamento_20_27:  Y -400 X(20,27) >= 0
Balanceamento_21_27:  Y -850 X(21,27) >= 0
Balanceamento_21_28:  Y -450 X(21,28) >= 0
Balanceamento_22_23:  Y -200 X(22,23) >= 0
Balanceamento_22_24:  Y -1100 X(22,24) >= 0
Balanceamento_22_26:  Y -1000 X(22,26) >= 0
Balanceamento_22_27:  Y -2700 X(22,27) >= 0
Balanceamento_22_28:  Y -2300 X(22,28) >= 0
Balanceamento_22_29:  Y -1850 X(22,29) >= 0
Balanceamento_22_31:  Y -800 X(22,31) >= 0
Balanceamento_23_24:  Y -900 X(23,24) >= 0
Balanceamento_23_26:  Y -800 X(23,26) >= 0
Balanceamento_23_27:  Y -2500 X(23,27) >= 0
Balanceamento_23_28:  Y -2100 X(23,28) >= 0
Balanceamento_23_29:  Y -1650 X(23,29) >= 0
Balanceamento_23_31:  Y -600 X(23,31) >= 0
Balanceamento_24_27:  Y -1600 X(24,27) >= 0
Balanceamento_24_28:  Y -1200 X(24,28) >= 0
Balanceamento_24_29:  Y -750 X(24,29) >= 0
Balanceamento_25_26:  Y -1100 X(25,26) >= 0
Balanceamento_25_27:  Y -2800 X(25,27) >= 0
Balanceamento_25_28:  Y -2400 X(25,28) >= 0
Balanceamento_25_29:  Y -1950 X(25,29) >= 0
Balanceamento_25_31:  Y -900 X(25,31) >= 0
Balanceamento_26_27:  Y -1700 X(26,27) >= 0
Balanceamento_26_28:  Y -1300 X(26,28) >= 0
Balanceamento_26_29:  Y -850 X(26,29) >= 0
Balanceamento_30_31:  Y -1000 X(30,31) >= 0
Bounds
 0 <= Y <= 5000
 0 <= X(0,1) <= 1
 0 <= X(0,2) <= 1
 0 <= X(0,3) <= 1
 0 <= X(0,4) <= 1
 0 <= X(0,5) <= 1
 0 <= X(0,6) <= 1
 0 <= X(0,7) <= 1
 0 <= X(0,8) <= 1
 0 <= X(0,9) <= 1
 0 <= X(0,10) <= 1
 0 <= X(0,11) <= 1
 0 <= X(0,12) <= 1
 0 <= X(0,13) <= 1
 0 <= X(0,14) <= 1
 0 <= X(0,15) <= 1
 0 <= X(0,16) <= 1
 0 <= X(0,17) <= 1
 0 <= X(0,18) <= 1
 0 <= X(0,19) <= 1
 0 <= X(0,20) <= 1
 0 <= X(0,21) <= 1
 0 <= X(0,22) <= 1
 0 <= X(0,23) <= 1
 0 <= X(0,24) <= 1
 0 <= X(0,25) <= 1
 0 <= X(0,26) <= 1
 0 <= X(0,27) <= 1
 0 <= X(0,28) <= 1
 0 <= X(0,29) <= 1
 0 <= X(0,30) <= 1
 0 <= X(0,31) <= 1
 0 <= X(1,2) <= 1
 0 <= X(1,3) <= 1
 0 <= X(1,4) <= 1
 0 <= X(1,5) <= 1
 0 <= X(1,6) <= 1
 0 <= X(1,7) <= 1
 0 <= X(1,8) <= 1
 0 <= X(1,9) <= 1
 0 <= X(1,10) <= 1
 0 <= X(1,11) <= 1
 0 <= X(1,12) <= 1
 0 <= X(1,13) <= 1
 0 <= X(1,14) <= 1
 0 <= X(1,15) <= 1
 0 <= X(1,16) <= 1
 0 <= X(1,17) <= 1
 0 <= X(1,18) <= 1
 0 <= X(1,19) <= 1
 0 <= X(1,20) <= 1
 0 <= X(1,21) <= 1
 0 <= X(1,22) <= 1
 0 <= X(1,23) <= 1
 0 <= X(1,24) <= 1
 0 <= X(1,25) <= 1
 0 <= X(1,26) <= 1
 0 <= X(1,27) <= 1
 0 <= X(1,28) <= 1
 0 <= X(1,29) <= 1
 0 <= X(1,30) <= 1
 0 <= X(1,31) <= 1
 0 <= X(2,3) <= 1
 0 <= X(2,4) <= 1
 0 <= X(2,5) <= 1
 0 <= X(2,6) <= 1
 0 <= X(2,7) <= 1
 0 <= X(2,8) <= 1
 0 <= X(2,9) <= 1
 0 <= X(2,10) <= 1
 0 <= X(2,11) <= 1
 0 <= X(2,12) <= 1
 0 <= X(2,13) <= 1
 0 <= X(2,14) <= 1
 0 <= X(2,15) <= 1
 0 <= X(2,16) <= 1
 0 <= X(2,17) <= 1
 0 <= X(2,18) <= 1
 0 <= X(2,19) <= 1
 0 <= X(2,20) <= 1
 0 <= X(2,21) <= 1
 0 <= X(2,22) <= 1
 0 <= X(2,23) <= 1
 0 <= X(2,24) <= 1
 0 <= X(2,25) <= 1
 0 <= X(2,26) <= 1
 0 <= X(2,27) <= 1
 0 <= X(2,28) <= 1
 0 <= X(2,29) <= 1
 0 <= X(2,30) <= 1
 0 <= X(2,31) <= 1
 0 <= X(3,4) <= 1
 0 <= X(3,5) <= 1
 0 <= X(3,6) <= 1
 0 <= X(3,7) <= 1
 0 <= X(3,8) <= 1
 0 <= X(3,9) <= 1
 0 <= X(3,10) <= 1
 0 <= X(3,11) <= 1
 0 <= X(3,12) <= 1
 0 <= X(3,13) <= 1
 0 <= X(3,14) <= 1
 0 <= X(3,15) <= 1
 0 <= X(3,16) <= 1
 0 <= X(3,17) <= 1
 0 <= X(3,18) <= 1
 0 <= X(3,19) <= 1
 0 <= X(3,20) <= 1
 0 <= X(3,21) <= 1
 0 <= X(3,22) <= 1
 0 <= X(3,23) <= 1
 0 <= X(3,24) <= 1
 0 <= X(3,25) <= 1
 0 <= X(3,26) <= 1
 0 <= X(3,27) <= 1
 0 <= X(3,28) <= 1
 0 <= X(3,29) <= 1
 0 <= X(3,30) <= 1
 0 <= X(3,31) <= 1
 0 <= X(4,5) <= 1
 0 <= X(4,6) <= 1
 0 <= X(4,7) <= 1
 0 <= X(4,8) <= 1
 0 <= X(4,9) <= 1
 0 <= X(4,10) <= 1
 0 <= X(4,11) <= 1
 0 <= X(4,12) <= 1
 0 <= X(4,13) <= 1
 0 <= X(4,14) <= 1
 0 <= X(4,15) <= 1
 0 <= X(4,16) <= 1
 0 <= X(4,17) <= 1
 0 <= X(4,18) <= 1
 0 <= X(4,19) <= 1
 0 <= X(4,20) <= 1
 0 <= X(4,21) <= 1
 0 <= X(4,22) <= 1
 0 <= X(4,23) <= 1
 0 <= X(4,24) <= 1
 0 <= X(4,25) <= 1
 0 <= X(4,26) <= 1
 0 <= X(4,27) <= 1
 0 <= X(4,28) <= 1
 0 <= X(4,29) <= 1
 0 <= X(4,30) <= 1
 0 <= X(4,31) <= 1
 0 <= X(5,6) <= 1
 0 <= X(5,7) <= 1
 0 <= X(5,8) <= 1
 0 <= X(5,9) <= 1
 0 <= X(5,10) <= 1
 0 <= X(5,11) <= 1
 0 <= X(5,12) <= 1
 0 <= X(5,13) <= 1
 0 <= X(5,14) <= 1
 0 <= X(5,15) <= 1
 0 <= X(5,16) <= 1
 0 <= X(5,17) <= 1
 0 <= X(5,18) <= 1
 0 <= X(5,19) <= 1
 0 <= X(5,20) <= 1
 0 <= X(5,21) <= 1
 0 <= X(5,22) <= 1
 0 <= X(5,23) <= 1
 0 <= X(5,24) <= 1
 0 <= X(5,25) <= 1
 0 <= X(5,26) <= 1
 0 <= X(5,27) <= 1
 0 <= X(5,28) <= 1
 0 <= X(5,29) <= 1
 0 <= X(5,30) <= 1
 0 <= X(5,31) <= 1
 0 <= X(6,7) <= 1
 0 <= X(6,8) <= 1
 0 <= X(6,9) <= 1
 0 <= X(6,10) <= 1
 0 <= X(6,11) <= 1
 0 <= X(6,12) <= 1
 0 <= X(6,13) <= 1
 0 <= X(6,14) <= 1
 0 <= X(6,15) <= 1
 0 <= X(6,16) <= 1
 0 <= X(6,17) <= 1
 0 <= X(6,18) <= 1
 0 <= X(6,19) <= 1
 0 <= X(6,20) <= 1
 0 <= X(6,21) <= 1
 0 <= X(6,22) <= 1
 0 <= X(6,23) <= 1
 0 <= X(6,24) <= 1
 0 <= X(6,25) <= 1
 0 <= X(6,26) <= 1
 0 <= X(6,27) <= 1
 0 <= X(6,28) <= 1
 0 <= X(6,29) <= 1
 0 <= X(6,30) <= 1
 0 <= X(6,31) <= 1
 0 <= X(7,8) <= 1
 0 <= X(7,9) <= 1
 0 <= X(7,10) <= 1
 0 <= X(7,11) <= 1
 0 <= X(7,12) <= 1
 0 <= X(7,13) <= 1
 0 <= X(7,14) <= 1
 0 <= X(7,15) <= 1
 0 <= X(7,16) <= 1
 0 <= X(7,17) <= 1
 0 <= X(7,18) <= 1
 0 <= X(7,19) <= 1
 0 <= X(7,20) <= 1
 0 <= X(7,21) <= 1
 0 <= X(7,22) <= 1
 0 <= X(7,23) <= 1
 0 <= X(7,24) <= 1
 0 <= X(7,25) <= 1
 0 <= X(7,26) <= 1
 0 <= X(7,27) <= 1
 0 <= X(7,28) <= 1
 0 <= X(7,29) <= 1
 0 <= X(7,30) <= 1
 0 <= X(7,31) <= 1
 0 <= X(8,9) <= 1
 0 <= X(8,10) <= 1
 0 <= X(8,11) <= 1
 0 <= X(8,12) <= 1
 0 <= X(8,13) <= 1
 0 <= X(8,14) <= 1
 0 <= X(8,15) <= 1
 0 <= X(8,16) <= 1
 0 <= X(8,17) <= 1
 0 <= X(8,18) <= 1
 0 <= X(8,19) <= 1
 0 <= X(8,20) <= 1
 0 <= X(8,21) <= 1
 0 <= X(8,22) <= 1
 0 <= X(8,23) <= 1
 0 <= X(8,24) <= 1
 0 <= X(8,25) <= 1
 0 <= X(8,26) <= 1
 0 <= X(8,27) <= 1
 0 <= X(8,28) <= 1
 0 <= X(8,29) <= 1
 0 <= X(8,30) <= 1
 0 <= X(8,31) <= 1
 0 <= X(9,10) <= 1
 0 <= X(9,11) <= 1
 0 <= X(9,12) <= 1
 0 <= X(9,13) <= 1
 0 <= X(9,14) <= 1
 0 <= X(9,15) <= 1
 0 <= X(9,16) <= 1
 0 <= X(9,17) <= 1
 0 <= X(9,18) <= 1
 0 <= X(9,19) <= 1
 0 <= X(9,20) <= 1
 0 <= X(9,21) <= 1
 0 <= X(9,22) <= 1
 0 <= X(9,23) <= 1
 0 <= X(9,24) <= 1
 0 <= X(9,25) <= 1
 0 <= X(9,26) <= 1
 0 <= X(9,27) <= 1
 0 <= X(9,28) <= 1
 0 <= X(9,29) <= 1
 0 <= X(9,30) <= 1
 0 <= X(9,31) <= 1
 0 <= X(10,11) <= 1
 0 <= X(10,12) <= 1
 0 <= X(10,13) <= 1
 0 <= X(10,14) <= 1
 0 <= X(10,15) <= 1
 0 <= X(10,16) <= 1
 0 <= X(10,17) <= 1
 0 <= X(10,18) <= 1
 0 <= X(10,19) <= 1
 0 <= X(10,20) <= 1
 0 <= X(10,21) <= 1
 0 <= X(10,22) <= 1
 0 <= X(10,23) <= 1
 0 <= X(10,24) <= 1
 0 <= X(10,25) <= 1
 0 <= X(10,26) <= 1
 0 <= X(10,27) <= 1
 0 <= X(10,28) <= 1
 0 <= X(10,29) <= 1
 0 <= X(10,30) <= 1
 0 <= X(10,31) <= 1
 0 <= X(11,12) <= 1
 0 <= X(11,13) <= 1
 0 <= X(11,14) <= 1
 0 <= X(11,15) <= 1
 0 <= X(11,16) <= 1
 0 <= X(11,17) <= 1
 0 <= X(11,18) <= 1
 0 <= X(11,19) <= 1
 0 <= X(11,20) <= 1
 0 <= X(11,21) <= 1
 0 <= X(11,22) <= 1
 0 <= X(11,23) <= 1
 0 <= X(11,24) <= 1
 0 <= X(11,25) <= 1
 0 <= X(11,26) <= 1
 0 <= X(11,27) <= 1
 0 <= X(11,28) <= 1
 0 <= X(11,29) <= 1
 0 <= X(11,30) <= 1
 0 <= X(11,31) <= 1
 0 <= X(12,13) <= 1
 0 <= X(12,14) <= 1
 0 <= X(12,15) <= 1
 0 <= X(12,16) <= 1
 0 <= X(12,17) <= 1
 0 <= X(12,18) <= 1
 0 <= X(12,19) <= 1
 0 <= X(12,20) <= 1
 0 <= X(12,21) <= 1
 0 <= X(12,22) <= 1
 0 <= X(12,23) <= 1
 0 <= X(12,24) <= 1
 0 <= X(12,25) <= 1
 0 <= X(12,26) <= 1
 0 <= X(12,27) <= 1
 0 <= X(12,28) <= 1
 0 <= X(12,29) <= 1
 0 <= X(12,30) <= 1
 0 <= X(12,31) <= 1
 0 <= X(13,14) <= 1
 0 <= X(13,15) <= 1
 0 <= X(13,16) <= 1
 0 <= X(13,17) <= 1
 0 <= X(13,18) <= 1
 0 <= X(13,19) <= 1
 0 <= X(13,20) <= 1
 0 <= X(13,21) <= 1
 0 <= X(13,22) <= 1
 0 <= X(13,23) <= 1
 0 <= X(13,24) <= 1
 0 <= X(13,25) <= 1
 0 <= X(13,26) <= 1
 0 <= X(13,27) <= 1
 0 <= X(13,28) <= 1
 0 <= X(13,29) <= 1
 0 <= X(13,30) <= 1
 0 <= X(13,31) <= 1
 0 <= X(14,15) <= 1
 0 <= X(14,16) <= 1
 0 <= X(14,17) <= 1
 0 <= X(14,18) <= 1
 0 <= X(14,19) <= 1
 0 <= X(14,20) <= 1
 0 <= X(14,21) <= 1
 0 <= X(14,22) <= 1
 0 <= X(14,23) <= 1
 0 <= X(14,24) <= 1
 0 <= X(14,25) <= 1
 0 <= X(14,26) <= 1
 0 <= X(14,27) <= 1
 0 <= X(14,28) <= 1
 0 <= X(14,29) <= 1
 0 <= X(14,30) <= 1
 0 <= X(14,31) <= 1
 0 <= X(15,16) <= 1
 0 <= X(15,17) <= 1
 0 <= X(15,18) <= 1
 0 <= X(15,19) <= 1
 0 <= X(15,20) <= 1
 0 <= X(15,21) <= 1
 0 <= X(15,22) <= 1
 0 <= X(15,23) <= 1
 0 <= X(15,24) <= 1
 0 <= X(15,25) <= 1
 0 <= X(15,26) <= 1
 0 <= X(15,27) <= 1
 0 <= X(15,28) <= 1
 0 <= X(15,29) <= 1
 0 <= X(15,30) <= 1
 0 <= X(15,31) <= 1
 0 <= X(16,17) <= 1
 0 <= X(16,18) <= 1
 0 <= X(16,19) <= 1
 0 <= X(16,20) <= 1
 0 <= X(16,21) <= 1
 0 <= X(16,22) <= 1
 0 <= X(16,23) <= 1
 0 <= X(16,24) <= 1
 0 <= X(16,25) <= 1
 0 <= X(16,26) <= 1
 0 <= X(16,27) <= 1
 0 <= X(16,28) <= 1
 0 <= X(16,29) <= 1
 0 <= X(16,30) <= 1
 0 <= X(16,31) <= 1
 0 <= X(17,18) <= 1
 0 <= X(17,19) <= 1
 0 <= X(17,20) <= 1
 0 <= X(17,21) <= 1
 0 <= X(17,22) <= 1
 0 <= X(17,23) <= 1
 0 <= X(17,24) <= 1
 0 <= X(17,25) <= 1
 0 <= X(17,26) <= 1
 0 <= X(17,27) <= 1
 0 <= X(17,28) <= 1
 0 <= X(17,29) <= 1
 0 <= X(17,30) <= 1
 0 <= X(17,31) <= 1
 0 <= X(18,19) <= 1
 0 <= X(18,20) <= 1
 0 <= X(18,21) <= 1
 0 <= X(18,22) <= 1
 0 <= X(18,23) <= 1
 0 <= X(18,24) <= 1
 0 <= X(18,25) <= 1
 0 <= X(18,26) <= 1
 0 <= X(18,27) <= 1
 0 <= X(18,28) <= 1
 0 <= X(18,29) <= 1
 0 <= X(18,30) <= 1
 0 <= X(18,31) <= 1
 0 <= X(19,20) <= 1
 0 <= X(19,21) <= 1
 0 <= X(19,22) <= 1
 0 <= X(19,23) <= 1
 0 <= X(19,24) <= 1
 0 <= X(19,25) <= 1
 0 <= X(19,26) <= 1
 0 <= X(19,27) <= 1
 0 <= X(19,28) <= 1
 0 <= X(19,29) <= 1
 0 <= X(19,30) <= 1
 0 <= X(19,31) <= 1
 0 <= X(20,21) <= 1
 0 <= X(20,22) <= 1
 0 <= X(20,23) <= 1
 0 <= X(20,24) <= 1
 0 <= X(20,25) <= 1
 0 <= X(20,26) <= 1
 0 <= X(20,27) <= 1
 0 <= X(20,28) <= 1
 0 <= X(20,29) <= 1
 0 <= X(20,30) <= 1
 0 <= X(20,31) <= 1
 0 <= X(21,22) <= 1
 0 <= X(21,23) <= 1
 0 <= X(21,24) <= 1
 0 <= X(21,25) <= 1
 0 <= X(21,26) <= 1
 0 <= X(21,27) <= 1
 0 <= X(21,28) <= 1
 0 <= X(21,29) <= 1
 0 <= X(21,30) <= 1
 0 <= X(21,31) <= 1
 0 <= X(22,23) <= 1
 0 <= X(22,24) <= 1
 0 <= X(22,25) <= 1
 0 <= X(22,26) <= 1
 0 <= X(22,27) <= 1
 0 <= X(22,28) <= 1
 0 <= X(22,29) <= 1
 0 <= X(22,30) <= 1
 0 <= X(22,31) <= 1
 0 <= X(23,24) <= 1
 0 <= X(23,25) <= 1
 0 <= X(23,26) <= 1
 0 <= X(23,27) <= 1
 0 <= X(23,28) <= 1
 0 <= X(23,29) <= 1
 0 <= X(23,30) <= 1
 0 <= X(23,31) <= 1
 0 <= X(24,25) <= 1
 0 <= X(24,26) <= 1
 0 <= X(24,27) <= 1
 0 <= X(24,28) <= 1
 0 <= X(24,29) <= 1
 0 <= X(24,30) <= 1
 0 <= X(24,31) <= 1
 0 <= X(25,26) <= 1
 0 <= X(25,27) <= 1
 0 <= X(25,28) <= 1
 0 <= X(25,29) <= 1
 0 <= X(25,30) <= 1
 0 <= X(25,31) <= 1
 0 <= X(26,27) <= 1
 0 <= X(26,28) <= 1
 0 <= X(26,29) <= 1
 0 <= X(26,30) <= 1
 0 <= X(26,31) <= 1
 0 <= X(27,28) <= 1
 0 <= X(27,29) <= 1
 0 <= X(27,30) <= 1
 0 <= X(27,31) <= 1
 0 <= X(28,29) <= 1
 0 <= X(28,30) <= 1
 0 <= X(28,31) <= 1
 0 <= X(29,30) <= 1
 0 <= X(29,31) <= 1
 0 <= X(30,31) <= 1
Integers
X(0,1) X(0,2) X(0,3) X(0,4) X(0,5) X(0,6) X(0,7) X(0,8) X(0,9) X(0,10) 
X(0,11) X(0,12) X(0,13) X(0,14) X(0,15) X(0,16) X(0,17) X(0,18) X(0,19) X(0,20) 
X(0,21) X(0,22) X(0,23) X(0,24) X(0,25) X(0,26) X(0,27) X(0,28) X(0,29) X(0,30) 
X(0,31) X(1,2) X(1,3) X(1,4) X(1,5) X(1,6) X(1,7) X(1,8) X(1,9) X(1,10) 
X(1,11) X(1,12) X(1,13) X(1,14) X(1,15) X(1,16) X(1,17) X(1,18) X(1,19) X(1,20) 
X(1,21) X(1,22) X(1,23) X(1,24) X(1,25) X(1,26) X(1,27) X(1,28) X(1,29) X(1,30) 
X(1,31) X(2,3) X(2,4) X(2,5) X(2,6) X(2,7) X(2,8) X(2,9) X(2,10) X(2,11) 
X(2,12) X(2,13) X(2,14) X(2,15) X(2,16) X(2,17) X(2,18) X(2,19) X(2,20) X(2,21) 
X(2,22) X(2,23) X(2,24) X(2,25) X(2,26) X(2,27) X(2,28) X(2,29) X(2,30) X(2,31) 
X(3,4) X(3,5) X(3,6) X(3,7) X(3,8) X(3,9) X(3,10) X(3,11) X(3,12) X(3,13) 
X(3,14) X(3,15) X(3,16) X(3,17) X(3,18) X(3,19) X(3,20) X(3,21) X(3,22) X(3,23) 
X(3,24) X(3,25) X(3,26) X(3,27) X(3,28) X(3,29) X(3,30) X(3,31) X(4,5) X(4,6) 
X(4,7) X(4,8) X(4,9) X(4,10) X(4,11) X(4,12) X(4,13) X(4,14) X(4,15) X(4,16) 
X(4,17) X(4,18) X(4,19) X(4,20) X(4,21) X(4,22) X(4,23) X(4,24) X(4,25) X(4,26) 
X(4,27) X(4,28) X(4,29) X(4,30) X(4,31) X(5,6) X(5,7) X(5,8) X(5,9) X(5,10) 
X(5,11) X(5,12) X(5,13) X(5,14) X(5,15) X(5,16) X(5,17) X(5,18) X(5,19) X(5,20) 
X(5,21) X(5,22) X(5,23) X(5,24) X(5,25) X(5,26) X(5,27) X(5,28) X(5,29) X(5,30) 
X(5,31) X(6,7) X(6,8) X(6,9) X(6,10) X(6,11) X(6,12) X(6,13) X(6,14) X(6,15) 
X(6,16) X(6,17) X(6,18) X(6,19) X(6,20) X(6,21) X(6,22) X(6,23) X(6,24) X(6,25) 
X(6,26) X(6,27) X(6,28) X(6,29) X(6,30) X(6,31) X(7,8) X(7,9) X(7,10) X(7,11) 
X(7,12) X(7,13) X(7,14) X(7,15) X(7,16) X(7,17) X(7,18) X(7,19) X(7,20) X(7,21) 
X(7,22) X(7,23) X(7,24) X(7,25) X(7,26) X(7,27) X(7,28) X(7,29) X(7,30) X(7,31) 
X(8,9) X(8,10) X(8,11) X(8,12) X(8,13) X(8,14) X(8,15) X(8,16) X(8,17) X(8,18) 
X(8,19) X(8,20) X(8,21) X(8,22) X(8,23) X(8,24) X(8,25) X(8,26) X(8,27) X(8,28) 
X(8,29) X(8,30) X(8,31) X(9,10) X(9,11) X(9,12) X(9,13) X(9,14) X(9,15) X(9,16) 
X(9,17) X(9,18) X(9,19) X(9,20) X(9,21) X(9,22) X(9,23) X(9,24) X(9,25) X(9,26) 
X(9,27) X(9,28) X(9,29) X(9,30) X(9,31) X(10,11) X(10,12) X(10,13) X(10,14) X(10,15) 
X(10,16) X(10,17) X(10,18) X(10,19) X(10,20) X(10,21) X(10,22) X(10,23) X(10,24) X(10,25) 
X(10,26) X(10,27) X(10,28) X(10,29) X(10,30) X(10,31) X(11,12) X(11,13) X(11,14) X(11,15) 
X(11,16) X(11,17) X(11,18) X(11,19) X(11,20) X(11,21) X(11,22) X(11,23) X(11,24) X(11,25) 
X(11,26) X(11,27) X(11,28) X(11,29) X(11,30) X(11,31) X(12,13) X(12,14) X(12,15) X(12,16) 
X(12,17) X(12,18) X(12,19) X(12,20) X(12,21) X(12,22) X(12,23) X(12,24) X(12,25) X(12,26) 
X(12,27) X(12,28) X(12,29) X(12,30) X(12,31) X(13,14) X(13,15) X(13,16) X(13,17) X(13,18) 
X(13,19) X(13,20) X(13,21) X(13,22) X(13,23) X(13,24) X(13,25) X(13,26) X(13,27) X(13,28) 
X(13,29) X(13,30) X(13,31) X(14,15) X(14,16) X(14,17) X(14,18) X(14,19) X(14,20) X(14,21) 
X(14,22) X(14,23) X(14,24) X(14,25) X(14,26) X(14,27) X(14,28) X(14,29) X(14,30) X(14,31) 
X(15,16) X(15,17) X(15,18) X(15,19) X(15,20) X(15,21) X(15,22) X(15,23) X(15,24) X(15,25) 
X(15,26) X(15,27) X(15,28) X(15,29) X(15,30) X(15,31) X(16,17) X(16,18) X(16,19) X(16,20) 
X(16,21) X(16,22) X(16,23) X(16,24) X(16,25) X(16,26) X(16,27) X(16,28) X(16,29) X(16,30) 
X(16,31) X(17,18) X(17,19) X(17,20) X(17,21) X(17,22) X(17,23) X(17,24) X(17,25) X(17,26) 
X(17,27) X(17,28) X(17,29) X(17,30) X(17,31) X(18,19) X(18,20) X(18,21) X(18,22) X(18,23) 
X(18,24) X(18,25) X(18,26) X(18,27) X(18,28) X(18,29) X(18,30) X(18,31) X(19,20) X(19,21) 
X(19,22) X(19,23) X(19,24) X(19,25) X(19,26) X(19,27) X(19,28) X(19,29) X(19,30) X(19,31) 
X(20,21) X(20,22) X(20,23) X(20,24) X(20,25) X(20,26) X(20,27) X(20,28) X(20,29) X(20,30) 
X(20,31) X(21,22) X(21,23) X(21,24) X(21,25) X(21,26) X(21,27) X(21,28) X(21,29) X(21,30) 
X(21,31) X(22,23) X(22,24) X(22,25) X(22,26) X(22,27) X(22,28) X(22,29) X(22,30) X(22,31) 
X(23,24) X(23,25) X(23,26) X(23,27) X(23,28) X(23,29) X(23,30) X(23,31) X(24,25) X(24,26) 
X(24,27) X(24,28) X(24,29) X(24,30) X(24,31) X(25,26) X(25,27) X(25,28) X(25,29) X(25,30) 
X(25,31) X(26,27) X(26,28) X(26,29) X(26,30) X(26,31) X(27,28) X(27,29) X(27,30) X(27,31) 
X(28,29) X(28,30) X(28,31) X(29,30) X(29,31) X(30,31) 
End
